c colouring generated by benchmark framework
p edge 385 19095
v 1 15
v 2 0
v 3 10
v 4 4
v 5 5
v 6 6
v 7 12
v 8 15
v 9 3
v 10 11
v 11 14
v 12 13
v 13 1
v 14 2
v 15 15
v 16 8
v 17 3
v 18 10
v 19 11
v 20 8
v 21 3
v 22 6
v 23 12
v 24 4
v 25 9
v 26 5
v 27 16
v 28 6
v 29 2
v 30 15
v 31 3
v 32 8
v 33 12
v 34 13
v 35 10
v 36 11
v 37 4
v 38 8
v 39 3
v 40 3
v 41 9
v 42 14
v 43 13
v 44 6
v 45 9
v 46 12
v 47 2
v 48 5
v 49 9
v 50 10
v 51 2
v 52 5
v 53 8
v 54 3
v 55 14
v 56 7
v 57 5
v 58 11
v 59 14
v 60 16
v 61 4
v 62 8
v 63 3
v 64 12
v 65 7
v 66 6
v 67 13
v 68 2
v 69 5
v 70 13
v 71 2
v 72 12
v 73 7
v 74 1
v 75 11
v 76 14
v 77 16
v 78 4
v 79 8
v 80 11
v 81 14
v 82 16
v 83 4
v 84 8
v 85 11
v 86 3
v 87 13
v 88 2
v 89 12
v 90 7
v 91 1
v 92 13
v 93 2
v 94 12
v 95 7
v 96 1
v 97 4
v 98 8
v 99 5
v 100 3
v 101 11
v 102 14
v 103 16
v 104 0
v 105 0
v 106 10
v 107 9
v 108 14
v 109 16
v 110 7
v 111 1
v 112 11
v 113 12
v 114 4
v 115 0
v 116 4
v 117 0
v 118 4
v 119 13
v 120 10
v 121 11
v 122 15
v 123 4
v 124 1
v 125 7
v 126 13
v 127 5
v 128 9
v 129 3
v 130 2
v 131 8
v 132 2
v 133 8
v 134 2
v 135 8
v 136 16
v 137 16
v 138 0
v 139 2
v 140 2
v 141 3
v 142 2
v 143 9
v 144 12
v 145 7
v 146 10
v 147 11
v 148 3
v 149 6
v 150 13
v 151 8
v 152 1
v 153 6
v 154 8
v 155 3
v 156 3
v 157 13
v 158 2
v 159 5
v 160 7
v 161 9
v 162 0
v 163 6
v 164 16
v 165 13
v 166 11
v 167 10
v 168 5
v 169 4
v 170 8
v 171 3
v 172 2
v 173 15
v 174 9
v 175 12
v 176 8
v 177 10
v 178 12
v 179 7
v 180 4
v 181 14
v 182 13
v 183 1
v 184 7
v 185 7
v 186 0
v 187 2
v 188 3
v 189 2
v 190 13
v 191 12
v 192 3
v 193 2
v 194 6
v 195 1
v 196 10
v 197 5
v 198 10
v 199 10
v 200 9
v 201 12
v 202 9
v 203 8
v 204 11
v 205 14
v 206 12
v 207 7
v 208 2
v 209 5
v 210 9
v 211 12
v 212 14
v 213 16
v 214 5
v 215 7
v 216 8
v 217 4
v 218 14
v 219 16
v 220 4
v 221 1
v 222 13
v 223 2
v 224 4
v 225 8
v 226 16
v 227 7
v 228 11
v 229 5
v 230 1
v 231 11
v 232 12
v 233 6
v 234 1
v 235 5
v 236 0
v 237 5
v 238 3
v 239 5
v 240 3
v 241 1
v 242 14
v 243 3
v 244 10
v 245 11
v 246 16
v 247 13
v 248 2
v 249 5
v 250 1
v 251 4
v 252 8
v 253 3
v 254 9
v 255 7
v 256 10
v 257 14
v 258 16
v 259 9
v 260 7
v 261 1
v 262 2
v 263 5
v 264 8
v 265 3
v 266 10
v 267 13
v 268 15
v 269 2
v 270 5
v 271 13
v 272 9
v 273 7
v 274 1
v 275 4
v 276 8
v 277 4
v 278 9
v 279 7
v 280 1
v 281 4
v 282 8
v 283 3
v 284 14
v 285 13
v 286 10
v 287 14
v 288 16
v 289 13
v 290 2
v 291 11
v 292 2
v 293 8
v 294 10
v 295 16
v 296 14
v 297 15
v 298 9
v 299 7
v 300 4
v 301 3
v 302 10
v 303 11
v 304 5
v 305 1
v 306 3
v 307 16
v 308 2
v 309 2
v 310 9
v 311 12
v 312 7
v 313 0
v 314 2
v 315 0
v 316 2
v 317 7
v 318 13
v 319 15
v 320 9
v 321 12
v 322 14
v 323 10
v 324 11
v 325 4
v 326 1
v 327 10
v 328 4
v 329 1
v 330 13
v 331 10
v 332 9
v 333 12
v 334 7
v 335 9
v 336 12
v 337 7
v 338 8
v 339 10
v 340 4
v 341 11
v 342 14
v 343 16
v 344 11
v 345 14
v 346 16
v 347 10
v 348 11
v 349 14
v 350 9
v 351 1
v 352 12
v 353 0
v 354 4
v 355 0
v 356 13
v 357 0
v 358 12
v 359 7
v 360 6
v 361 4
v 362 8
v 363 3
v 364 0
v 365 0
v 366 0
v 367 0
v 368 2
v 369 5
v 370 9
v 371 12
v 372 7
v 373 4
v 374 8
v 375 3
v 376 0
v 377 0
v 378 0
v 379 5
v 380 13
v 381 2
v 382 1
v 383 4
v 384 1
v 385 1
